
Gurobi 9.1.2 (linux64, gurobi_cl) logging started Fri Jul 30 13:55:32 2021

Using license file /opt/gurobi/gurobi.lic
Set parameter TimeLimit to value 600
Set parameter Heuristics to value 0
Set parameter Cuts to value 1
Set parameter LogFile to value 912-Cuts1-Heuristics0-glass4-2.log
Set parameter Seed to value 2

Gurobi Optimizer version 9.1.2 build v9.1.2rc0 (linux64)
Copyright (c) 2021, Gurobi Optimization, LLC

Read MPS format model from file /nfs/models/mip/glass4.mps.bz2
Reading time = 0.00 seconds
glass4: 396 rows, 322 columns, 1815 nonzeros
Thread count: 4 physical cores, 8 logical processors, using up to 8 threads
Optimize a model with 396 rows, 322 columns and 1815 nonzeros
Model fingerprint: 0x0a9d9037
Variable types: 20 continuous, 302 integer (0 binary)
Coefficient statistics:
  Matrix range     [1e+00, 8e+06]
  Objective range  [1e+00, 1e+06]
  Bounds range     [1e+00, 8e+02]
  RHS range        [1e+00, 8e+06]
Presolve removed 6 rows and 6 columns
Presolve time: 0.00s
Presolved: 390 rows, 316 columns, 1803 nonzeros
Variable types: 19 continuous, 297 integer (297 binary)

Root relaxation: objective 8.000024e+08, 72 iterations, 0.00 seconds

    Nodes    |    Current Node    |     Objective Bounds      |     Work
 Expl Unexpl |  Obj  Depth IntInf | Incumbent    BestBd   Gap | It/Node Time

     0     0 8.0000e+08    0   72          - 8.0000e+08      -     -    0s
     0     0 8.0000e+08    0   72          - 8.0000e+08      -     -    0s
     0     0 8.0000e+08    0   75          - 8.0000e+08      -     -    0s
     0     0 8.0000e+08    0   75          - 8.0000e+08      -     -    0s
     0     2 8.0000e+08    0   75          - 8.0000e+08      -     -    0s
*  588  1122             168    2.950023e+09 8.0000e+08  72.9%   3.6    0s
*  926  1120             167    2.400021e+09 8.0000e+08  66.7%   3.6    0s
* 2280  1716              79    2.400020e+09 8.0000e+08  66.7%   6.8    0s
* 2283  1648              81    2.300021e+09 8.0000e+08  65.2%   6.8    0s
* 2284  1587              82    2.300021e+09 8.0000e+08  65.2%   6.8    0s
* 2287  1527              81    2.300020e+09 8.0000e+08  65.2%   6.8    0s
* 2498  1487             110    2.200019e+09 8.0000e+08  63.6%   6.9    0s
* 2570  1716             114    2.187520e+09 8.0000e+08  63.4%   6.9    0s
* 2693  1626             108    2.133353e+09 8.0000e+08  62.5%   6.8    0s
* 2784  1547             103    2.100020e+09 8.0000e+08  61.9%   6.7    0s
* 3594  1789             124    2.100020e+09 8.0000e+08  61.9%   7.1    0s
* 3595  1693             124    2.000019e+09 8.0000e+08  60.0%   7.1    0s
* 3604  1543             128    1.900017e+09 8.0000e+08  57.9%   7.1    0s
* 3605  1505             128    1.900017e+09 8.0000e+08  57.9%   7.1    0s
* 4748  2394             111    1.900016e+09 8.0000e+08  57.9%   7.1    0s
*11112  7063              85    1.900016e+09 8.0001e+08  57.9%   8.4    0s
*11720  7689              92    1.900015e+09 8.0001e+08  57.9%   8.3    0s
*12048  7689              93    1.900015e+09 8.0001e+08  57.9%   8.4    0s
*13295  8100             133    1.866684e+09 8.0001e+08  57.1%   8.5    1s
*13593  8078             107    1.811126e+09 8.0001e+08  55.8%   8.5    1s
*20143 12974              92    1.800018e+09 8.0001e+08  55.6%   8.5    1s
*22012 13972              88    1.800017e+09 8.0001e+08  55.6%   8.6    1s
*22013 13938              88    1.800017e+09 8.0001e+08  55.6%   8.6    1s
*22913 14915              84    1.800016e+09 8.0001e+08  55.6%   8.6    1s
*27441 15964              97    1.700016e+09 8.0001e+08  52.9%   8.6    1s
*33391 16529              92    1.680016e+09 8.0001e+08  52.4%   8.8    2s
*33392 16382              92    1.660016e+09 8.0001e+08  51.8%   8.8    2s
*52991 27417              81    1.648016e+09 8.0001e+08  51.5%   9.2    3s
*52992 27411              81    1.644460e+09 8.0001e+08  51.4%   9.2    3s
 68029 35811 9.6088e+08   38   55 1.6445e+09 8.3334e+08  49.3%   9.5    5s
*74849 38535              50    1.633348e+09 8.7501e+08  46.4%   9.7    5s
*74852 37145              50    1.600015e+09 8.7501e+08  45.3%   9.7    5s
 136507 73806 infeasible   65      1.6000e+09 9.0001e+08  43.8%   9.7   10s
*145667 79489              59    1.600015e+09 9.0001e+08  43.8%   9.7   10s
*145672 79229              60    1.600015e+09 9.0001e+08  43.8%   9.7   10s
*145693 79026              66    1.600014e+09 9.0001e+08  43.8%   9.7   10s
 206947 112109 1.4000e+09   70   38 1.6000e+09 9.0001e+08  43.8%   9.5   15s
 275722 148219 1.5000e+09   45   44 1.6000e+09 9.0169e+08  43.6%   9.3   20s
*298839 130658              66    1.566682e+09 9.4483e+08  39.7%   9.3   21s
*301847 120604              86    1.500015e+09 9.4787e+08  36.8%   9.3   21s
*304370 119636              47    1.500013e+09 9.5001e+08  36.7%   9.3   22s
*312654 93191              63    1.466680e+09 9.5001e+08  35.2%   9.2   22s
*314263 89972              72    1.433348e+09 9.5834e+08  33.1%   9.3   23s
*314268 85591              73    1.400013e+09 9.5834e+08  31.5%   9.3   23s
*318957 86179              40    1.400013e+09 9.7501e+08  30.4%   9.3   23s
*319206 70875              48    1.366680e+09 9.7501e+08  28.7%   9.4   23s
*319207 69161              48    1.350013e+09 9.7501e+08  27.8%   9.4   23s
 331483 70214 infeasible   53      1.3500e+09 1.0000e+09  25.9%   9.6   25s
*337972 65237              50    1.333346e+09 1.0000e+09  25.0%  10.0   26s
*337975 62745              51    1.320013e+09 1.0000e+09  24.2%  10.0   26s
*346843 54319              32    1.300014e+09 1.1000e+09  15.4%  10.2   28s
*346847 31437              35    1.200013e+09 1.1000e+09  8.33%  10.2   28s

Cutting planes:
  Gomory: 108
  Cover: 5
  Implied bound: 26
  MIR: 8
  Flow cover: 170
  RLT: 138
  Relax-and-lift: 76

Explored 363333 nodes (3620865 simplex iterations) in 29.13 seconds
Thread count was 8 (of 8 available processors)

Solution count 10: 1.20001e+09 1.30001e+09 1.32001e+09 ... 1.46668e+09

Optimal solution found (tolerance 1.00e-04)
Best objective 1.200012600000e+09, best bound 1.200003400000e+09, gap 0.0008%
